n_machines = 10;
n_resources = 12;
n_jobs = 68;
horizon = 3496;
LB = 467;
n_jobs_per_resource = [9, 5, 4, 9, 9, 3, 5, 5, 7, 2, 5, 5];
duration = [7, 31, 83, 91, 10, 17, 5, 59, 17, 97, 99, 75, 1, 77, 47, 16, 42, 43, 7, 29, 27, 91, 24, 6, 93, 98, 92, 11, 32, 97, 34, 97, 6, 44, 2, 54, 78, 39, 89, 76, 9, 32, 46, 80, 57, 92, 47, 21, 54, 52, 52, 88, 98, 21, 98, 49, 47, 17, 40, 95, 76, 77, 22, 68, 47, 13, 82, 73]